
Gurobi 5.6.3 (linux64) logging started Thu Jan 14 16:52:19 2016


Gurobi 5.6.3 (linux64) logging started Fri Feb 12 13:44:28 2016


Gurobi 5.6.3 (linux64) logging started Fri Feb 12 14:20:51 2016


Gurobi 5.6.3 (linux64) logging started Fri Feb 12 15:46:20 2016


Gurobi 5.6.3 (linux64) logging started Fri Feb 12 16:20:53 2016


Gurobi 5.6.3 (linux64) logging started Fri Feb 12 22:39:29 2016


Gurobi 5.6.3 (linux64) logging started Fri Feb 12 22:57:36 2016


Gurobi 5.6.3 (linux64) logging started Tue Feb 16 21:56:10 2016

